c strEdges: 125  randomEdges: 504 
c degrees:  1  2 
c girth: Inf max: -43.604516  
c Hgirth mixed MAXCUT instance
c generated from an undirected graph
c to solve unweighted MaxCut
p cnf 140 1258
56 78 0
-56 -78 0
56 27 0
-56 -27 0
117 53 0
-117 -53 0
117 46 0
-117 -46 0
17 109 0
-17 -109 0
17 102 0
-17 -102 0
32 115 0
-32 -115 0
32 120 0
-32 -120 0
104 93 0
-104 -93 0
104 58 0
-104 -58 0
83 46 0
-83 -46 0
83 130 0
-83 -130 0
1 121 0
-1 -121 0
1 38 0
-1 -38 0
116 101 0
-116 -101 0
127 118 0
-127 -118 0
127 71 0
-127 -71 0
76 18 0
-76 -18 0
10 63 0
-10 -63 0
10 50 0
-10 -50 0
99 43 0
-99 -43 0
99 115 0
-99 -115 0
52 69 0
-52 -69 0
52 136 0
-52 -136 0
19 15 0
-19 -15 0
59 68 0
-59 -68 0
59 81 0
-59 -81 0
135 55 0
-135 -55 0
135 34 0
-135 -34 0
119 82 0
-119 -82 0
119 80 0
-119 -80 0
25 134 0
-25 -134 0
25 7 0
-25 -7 0
111 102 0
-111 -102 0
111 3 0
-111 -3 0
66 16 0
-66 -16 0
66 44 0
-66 -44 0
87 84 0
-87 -84 0
87 43 0
-87 -43 0
124 79 0
-124 -79 0
124 101 0
-124 -101 0
42 50 0
-42 -50 0
112 38 0
-112 -38 0
112 53 0
-112 -53 0
45 7 0
-45 -7 0
45 114 0
-45 -114 0
72 71 0
-72 -71 0
72 20 0
-72 -20 0
49 34 0
-49 -34 0
23 12 0
-23 -12 0
23 15 0
-23 -15 0
138 28 0
-138 -28 0
138 74 0
-138 -74 0
41 136 0
-41 -136 0
41 88 0
-41 -88 0
5 88 0
-5 -88 0
5 35 0
-5 -35 0
2 11 0
-2 -11 0
2 118 0
-2 -118 0
47 29 0
-47 -29 0
47 122 0
-47 -122 0
6 94 0
-6 -94 0
6 67 0
-6 -67 0
65 80 0
-65 -80 0
65 61 0
-65 -61 0
128 51 0
-128 -51 0
92 129 0
-92 -129 0
140 120 0
-140 -120 0
140 37 0
-140 -37 0
62 122 0
-62 -122 0
62 55 0
-62 -55 0
126 74 0
-126 -74 0
77 130 0
-77 -130 0
77 69 0
-77 -69 0
90 9 0
-90 -9 0
90 108 0
-90 -108 0
91 61 0
-91 -61 0
91 132 0
-91 -132 0
40 21 0
-40 -21 0
40 89 0
-40 -89 0
14 27 0
-14 -27 0
96 20 0
-96 -20 0
110 73 0
-110 -73 0
110 100 0
-110 -100 0
13 108 0
-13 -108 0
13 60 0
-13 -60 0
64 114 0
-64 -114 0
4 60 0
-4 -60 0
103 132 0
-103 -132 0
103 54 0
-103 -54 0
33 85 0
-33 -85 0
33 29 0
-33 -29 0
26 107 0
-26 -107 0
57 100 0
-57 -100 0
57 134 0
-57 -134 0
131 54 0
-131 -54 0
131 18 0
-131 -18 0
22 137 0
-22 -137 0
22 11 0
-22 -11 0
113 86 0
-113 -86 0
113 16 0
-113 -16 0
106 98 0
-106 -98 0
106 78 0
-106 -78 0
70 37 0
-70 -37 0
70 12 0
-70 -12 0
30 58 0
-30 -58 0
30 8 0
-30 -8 0
48 8 0
-48 -8 0
48 9 0
-48 -9 0
123 105 0
-123 -105 0
123 109 0
-123 -109 0
125 35 0
-125 -35 0
125 63 0
-125 -63 0
97 44 0
-97 -44 0
97 85 0
-97 -85 0
39 89 0
-39 -89 0
31 67 0
-31 -67 0
31 93 0
-31 -93 0
139 3 0
-139 -3 0
139 121 0
-139 -121 0
95 36 0
-95 -36 0
95 137 0
-95 -137 0
133 75 0
-133 -75 0
133 82 0
-133 -82 0
24 81 0
-24 -81 0
93 55 0
-93 -55 0
22 102 0
-22 -102 0
59 138 0
-59 -138 0
25 122 0
-25 -122 0
13 51 0
-13 -51 0
32 68 0
-32 -68 0
17 1 0
-17 -1 0
127 131 0
-127 -131 0
126 21 0
-126 -21 0
77 96 0
-77 -96 0
115 60 0
-115 -60 0
41 109 0
-41 -109 0
29 51 0
-29 -51 0
45 18 0
-45 -18 0
116 93 0
-116 -93 0
32 101 0
-32 -101 0
127 13 0
-127 -13 0
76 59 0
-76 -59 0
104 65 0
-104 -65 0
34 67 0
-34 -67 0
107 89 0
-107 -89 0
54 105 0
-54 -105 0
107 44 0
-107 -44 0
16 108 0
-16 -108 0
8 3 0
-8 -3 0
1 128 0
-1 -128 0
41 48 0
-41 -48 0
29 105 0
-29 -105 0
47 28 0
-47 -28 0
52 28 0
-52 -28 0
112 101 0
-112 -101 0
131 50 0
-131 -50 0
62 96 0
-62 -96 0
4 101 0
-4 -101 0
103 9 0
-103 -9 0
130 86 0
-130 -86 0
37 58 0
-37 -58 0
25 65 0
-25 -65 0
92 14 0
-92 -14 0
71 130 0
-71 -130 0
31 89 0
-31 -89 0
5 30 0
-5 -30 0
41 53 0
-41 -53 0
42 30 0
-42 -30 0
13 139 0
-13 -139 0
99 20 0
-99 -20 0
122 58 0
-122 -58 0
30 88 0
-30 -88 0
32 91 0
-32 -91 0
63 61 0
-63 -61 0
116 24 0
-116 -24 0
110 125 0
-110 -125 0
15 34 0
-15 -34 0
50 73 0
-50 -73 0
99 59 0
-99 -59 0
70 81 0
-70 -81 0
43 98 0
-43 -98 0
56 95 0
-56 -95 0
6 79 0
-6 -79 0
39 35 0
-39 -35 0
52 5 0
-52 -5 0
128 58 0
-128 -58 0
19 26 0
-19 -26 0
14 51 0
-14 -51 0
101 80 0
-101 -80 0
125 8 0
-125 -8 0
12 120 0
-12 -120 0
55 44 0
-55 -44 0
116 13 0
-116 -13 0
40 131 0
-40 -131 0
12 94 0
-12 -94 0
53 38 0
-53 -38 0
19 60 0
-19 -60 0
55 80 0
-55 -80 0
77 81 0
-77 -81 0
4 80 0
-4 -80 0
64 86 0
-64 -86 0
112 57 0
-112 -57 0
133 74 0
-133 -74 0
138 11 0
-138 -11 0
106 67 0
-106 -67 0
43 68 0
-43 -68 0
99 92 0
-99 -92 0
22 35 0
-22 -35 0
105 44 0
-105 -44 0
135 16 0
-135 -16 0
117 51 0
-117 -51 0
25 91 0
-25 -91 0
7 107 0
-7 -107 0
42 110 0
-42 -110 0
125 67 0
-125 -67 0
128 7 0
-128 -7 0
140 121 0
-140 -121 0
2 36 0
-2 -36 0
72 34 0
-72 -34 0
140 3 0
-140 -3 0
118 20 0
-118 -20 0
57 68 0
-57 -68 0
117 61 0
-117 -61 0
14 26 0
-14 -26 0
99 54 0
-99 -54 0
138 64 0
-138 -64 0
10 60 0
-10 -60 0
49 134 0
-49 -134 0
124 68 0
-124 -68 0
139 34 0
-139 -34 0
130 105 0
-130 -105 0
31 36 0
-31 -36 0
12 129 0
-12 -129 0
127 47 0
-127 -47 0
6 95 0
-6 -95 0
19 31 0
-19 -31 0
78 73 0
-78 -73 0
42 55 0
-42 -55 0
76 30 0
-76 -30 0
76 4 0
-76 -4 0
95 71 0
-95 -71 0
24 29 0
-24 -29 0
134 36 0
-134 -36 0
79 114 0
-79 -114 0
59 97 0
-59 -97 0
9 73 0
-9 -73 0
112 71 0
-112 -71 0
91 137 0
-91 -137 0
1 28 0
-1 -28 0
100 54 0
-100 -54 0
25 51 0
-25 -51 0
12 88 0
-12 -88 0
106 7 0
-106 -7 0
126 12 0
-126 -12 0
49 61 0
-49 -61 0
127 88 0
-127 -88 0
87 132 0
-87 -132 0
117 79 0
-117 -79 0
83 13 0
-83 -13 0
32 39 0
-32 -39 0
138 75 0
-138 -75 0
56 92 0
-56 -92 0
127 87 0
-127 -87 0
103 58 0
-103 -58 0
139 122 0
-139 -122 0
83 132 0
-83 -132 0
131 55 0
-131 -55 0
17 48 0
-17 -48 0
84 38 0
-84 -38 0
119 73 0
-119 -73 0
111 72 0
-111 -72 0
25 106 0
-25 -106 0
92 125 0
-92 -125 0
125 15 0
-125 -15 0
104 80 0
-104 -80 0
25 121 0
-25 -121 0
1 7 0
-1 -7 0
128 73 0
-128 -73 0
104 103 0
-104 -103 0
83 110 0
-83 -110 0
139 109 0
-139 -109 0
104 57 0
-104 -57 0
39 98 0
-39 -98 0
24 55 0
-24 -55 0
103 82 0
-103 -82 0
19 128 0
-19 -128 0
68 8 0
-68 -8 0
75 81 0
-75 -81 0
77 46 0
-77 -46 0
99 64 0
-99 -64 0
62 40 0
-62 -40 0
83 86 0
-83 -86 0
48 18 0
-48 -18 0
4 18 0
-4 -18 0
112 63 0
-112 -63 0
2 123 0
-2 -123 0
63 50 0
-63 -50 0
134 137 0
-134 -137 0
42 95 0
-42 -95 0
33 102 0
-33 -102 0
10 80 0
-10 -80 0
125 81 0
-125 -81 0
121 43 0
-121 -43 0
13 107 0
-13 -107 0
56 13 0
-56 -13 0
17 39 0
-17 -39 0
48 139 0
-48 -139 0
64 106 0
-64 -106 0
68 61 0
-68 -61 0
45 120 0
-45 -120 0
69 7 0
-69 -7 0
28 122 0
-28 -122 0
138 53 0
-138 -53 0
10 100 0
-10 -100 0
99 78 0
-99 -78 0
84 105 0
-84 -105 0
41 79 0
-41 -79 0
76 130 0
-76 -130 0
50 67 0
-50 -67 0
70 79 0
-70 -79 0
57 121 0
-57 -121 0
63 105 0
-63 -105 0
34 73 0
-34 -73 0
66 77 0
-66 -77 0
24 105 0
-24 -105 0
124 5 0
-124 -5 0
45 84 0
-45 -84 0
23 102 0
-23 -102 0
127 4 0
-127 -4 0
79 137 0
-79 -137 0
116 137 0
-116 -137 0
61 58 0
-61 -58 0
33 22 0
-33 -22 0
130 81 0
-130 -81 0
10 124 0
-10 -124 0
85 100 0
-85 -100 0
65 96 0
-65 -96 0
92 33 0
-92 -33 0
87 129 0
-87 -129 0
52 74 0
-52 -74 0
135 36 0
-135 -36 0
42 47 0
-42 -47 0
69 100 0
-69 -100 0
9 107 0
-9 -107 0
45 2 0
-45 -2 0
1 72 0
-1 -72 0
95 35 0
-95 -35 0
127 42 0
-127 -42 0
21 27 0
-21 -27 0
1 35 0
-1 -35 0
87 78 0
-87 -78 0
113 129 0
-113 -129 0
131 9 0
-131 -9 0
79 37 0
-79 -37 0
76 123 0
-76 -123 0
116 79 0
-116 -79 0
68 108 0
-68 -108 0
52 73 0
-52 -73 0
118 122 0
-118 -122 0
116 57 0
-116 -57 0
39 37 0
-39 -37 0
80 137 0
-80 -137 0
9 114 0
-9 -114 0
2 55 0
-2 -55 0
120 105 0
-120 -105 0
72 109 0
-72 -109 0
32 66 0
-32 -66 0
77 28 0
-77 -28 0
60 36 0
-60 -36 0
19 23 0
-19 -23 0
28 58 0
-28 -58 0
43 60 0
-43 -60 0
7 21 0
-7 -21 0
95 67 0
-95 -67 0
34 130 0
-34 -130 0
47 136 0
-47 -136 0
83 64 0
-83 -64 0
65 46 0
-65 -46 0
23 46 0
-23 -46 0
127 123 0
-127 -123 0
41 101 0
-41 -101 0
18 100 0
-18 -100 0
4 22 0
-4 -22 0
72 134 0
-72 -134 0
55 35 0
-55 -35 0
49 121 0
-49 -121 0
112 15 0
-112 -15 0
30 120 0
-30 -120 0
88 29 0
-88 -29 0
87 130 0
-87 -130 0
49 139 0
-49 -139 0
76 109 0
-76 -109 0
106 121 0
-106 -121 0
111 115 0
-111 -115 0
137 44 0
-137 -44 0
68 54 0
-68 -54 0
31 101 0
-31 -101 0
131 79 0
-131 -79 0
56 34 0
-56 -34 0
52 14 0
-52 -14 0
110 31 0
-110 -31 0
29 89 0
-29 -89 0
59 13 0
-59 -13 0
130 67 0
-130 -67 0
7 61 0
-7 -61 0
66 132 0
-66 -132 0
134 54 0
-134 -54 0
19 59 0
-19 -59 0
13 95 0
-13 -95 0
96 133 0
-96 -133 0
64 93 0
-64 -93 0
59 100 0
-59 -100 0
17 126 0
-17 -126 0
85 107 0
-85 -107 0
46 11 0
-46 -11 0
52 79 0
-52 -79 0
64 37 0
-64 -37 0
119 74 0
-119 -74 0
89 36 0
-89 -36 0
128 14 0
-128 -14 0
99 39 0
-99 -39 0
65 12 0
-65 -12 0
32 33 0
-32 -33 0
124 85 0
-124 -85 0
64 39 0
-64 -39 0
124 48 0
-124 -48 0
26 29 0
-26 -29 0
16 34 0
-16 -34 0
65 8 0
-65 -8 0
84 107 0
-84 -107 0
57 94 0
-57 -94 0
59 23 0
-59 -23 0
99 132 0
-99 -132 0
109 79 0
-109 -79 0
72 49 0
-72 -49 0
10 97 0
-10 -97 0
33 63 0
-33 -63 0
100 37 0
-100 -37 0
117 131 0
-117 -131 0
7 80 0
-7 -80 0
55 130 0
-55 -130 0
99 45 0
-99 -45 0
32 135 0
-32 -135 0
45 57 0
-45 -57 0
1 131 0
-1 -131 0
42 81 0
-42 -81 0
116 4 0
-116 -4 0
46 67 0
-46 -67 0
23 120 0
-23 -120 0
57 53 0
-57 -53 0
126 118 0
-126 -118 0
102 74 0
-102 -74 0
24 108 0
-24 -108 0
63 94 0
-63 -94 0
38 51 0
-38 -51 0
90 40 0
-90 -40 0
135 45 0
-135 -45 0
23 50 0
-23 -50 0
111 28 0
-111 -28 0
39 21 0
-39 -21 0
102 94 0
-102 -94 0
96 85 0
-96 -85 0
31 86 0
-31 -86 0
123 39 0
-123 -39 0
63 9 0
-63 -9 0
84 85 0
-84 -85 0
25 124 0
-25 -124 0
65 120 0
-65 -120 0
96 26 0
-96 -26 0
124 120 0
-124 -120 0
10 23 0
-10 -23 0
109 8 0
-109 -8 0
1 76 0
-1 -76 0
15 71 0
-15 -71 0
117 137 0
-117 -137 0
99 130 0
-99 -130 0
55 27 0
-55 -27 0
41 37 0
-41 -37 0
106 43 0
-106 -43 0
99 125 0
-99 -125 0
133 12 0
-133 -12 0
66 24 0
-66 -24 0
115 102 0
-115 -102 0
50 12 0
-50 -12 0
56 76 0
-56 -76 0
10 54 0
-10 -54 0
87 128 0
-87 -128 0
17 65 0
-17 -65 0
10 81 0
-10 -81 0
79 36 0
-79 -36 0
137 35 0
-137 -35 0
14 38 0
-14 -38 0
124 130 0
-124 -130 0
25 125 0
-25 -125 0
113 12 0
-113 -12 0
118 61 0
-118 -61 0
4 39 0
-4 -39 0
115 36 0
-115 -36 0
17 103 0
-17 -103 0
25 131 0
-25 -131 0
2 38 0
-2 -38 0
49 31 0
-49 -31 0
110 36 0
-110 -36 0
42 77 0
-42 -77 0
83 68 0
-83 -68 0
47 57 0
-47 -57 0
57 21 0
-57 -21 0
66 113 0
-66 -113 0
18 73 0
-18 -73 0
132 36 0
-132 -36 0
111 60 0
-111 -60 0
119 33 0
-119 -33 0
58 36 0
-58 -36 0
68 74 0
-68 -74 0
1 50 0
-1 -50 0
18 94 0
-18 -94 0
17 57 0
-17 -57 0
119 66 0
-119 -66 0
19 40 0
-19 -40 0
57 82 0
-57 -82 0
41 93 0
-41 -93 0
90 84 0
-90 -84 0
53 100 0
-53 -100 0
59 134 0
-59 -134 0
47 91 0
-47 -91 0
56 32 0
-56 -32 0
1 119 0
-1 -119 0
83 138 0
-83 -138 0
95 63 0
-95 -63 0
96 88 0
-96 -88 0
66 31 0
-66 -31 0
126 78 0
-126 -78 0
127 135 0
-127 -135 0
43 12 0
-43 -12 0
124 49 0
-124 -49 0
53 107 0
-53 -107 0
114 137 0
-114 -137 0
84 36 0
-84 -36 0
139 100 0
-139 -100 0
83 95 0
-83 -95 0
113 51 0
-113 -51 0
34 35 0
-34 -35 0
56 28 0
-56 -28 0
32 105 0
-32 -105 0
38 28 0
-38 -28 0
43 79 0
-43 -79 0
92 22 0
-92 -22 0
110 12 0
-110 -12 0
131 60 0
-131 -60 0
99 124 0
-99 -124 0
19 140 0
-19 -140 0
53 51 0
-53 -51 0
117 128 0
-117 -128 0
112 110 0
-112 -110 0
91 81 0
-91 -81 0
140 91 0
-140 -91 0
102 60 0
-102 -60 0
135 27 0
-135 -27 0
125 46 0
-125 -46 0
19 135 0
-19 -135 0
48 132 0
-48 -132 0
1 15 0
-1 -15 0
76 8 0
-76 -8 0
45 133 0
-45 -133 0
23 57 0
-23 -57 0
49 94 0
-49 -94 0
129 86 0
-129 -86 0
47 16 0
-47 -16 0
128 97 0
-128 -97 0
14 44 0
-14 -44 0
22 82 0
-22 -82 0
121 27 0
-121 -27 0
11 73 0
-11 -73 0
87 53 0
-87 -53 0
47 7 0
-47 -7 0
111 51 0
-111 -51 0
99 65 0
-99 -65 0
59 118 0
-59 -118 0
92 123 0
-92 -123 0
111 95 0
-111 -95 0
52 100 0
-52 -100 0
104 35 0
-104 -35 0
112 64 0
-112 -64 0
46 137 0
-46 -137 0
17 66 0
-17 -66 0
116 64 0
-116 -64 0
18 120 0
-18 -120 0
2 35 0
-2 -35 0
45 92 0
-45 -92 0
1 129 0
-1 -129 0
112 98 0
-112 -98 0
131 102 0
-131 -102 0
40 57 0
-40 -57 0
66 36 0
-66 -36 0
113 139 0
-113 -139 0
15 89 0
-15 -89 0
103 20 0
-103 -20 0
10 98 0
-10 -98 0
34 11 0
-34 -11 0
111 20 0
-111 -20 0
68 120 0
-68 -120 0
104 105 0
-104 -105 0
23 125 0
-23 -125 0
133 120 0
-133 -120 0
132 86 0
-132 -86 0
24 88 0
-24 -88 0
22 20 0
-22 -20 0
124 58 0
-124 -58 0
124 15 0
-124 -15 0
21 8 0
-21 -8 0
111 112 0
-111 -112 0
22 16 0
-22 -16 0
98 8 0
-98 -8 0
2 78 0
-2 -78 0
59 85 0
-59 -85 0
13 105 0
-13 -105 0
53 35 0
-53 -35 0
123 85 0
-123 -85 0
116 120 0
-116 -120 0
28 20 0
-28 -20 0
71 98 0
-71 -98 0
7 37 0
-7 -37 0
80 21 0
-80 -21 0
2 85 0
-2 -85 0
52 58 0
-52 -58 0
109 36 0
-109 -36 0
53 88 0
-53 -88 0
116 37 0
-116 -37 0
